&CONTROL
   calculation      = 'scf'
   tstress          = .true.
   tprnfor          = .true.
   outdir           = './tmp'
   pseudo_dir       = '/home/cganley2/qe-data/pseudopotentials/SSSP_1.3.0_PBE_precision'
/
&SYSTEM
   ecutwfc          = 50
   ecutrho          = 400
   occupations      = 'smearing'
   ntyp             = 2
   nat              = 144
   ibrav            = 0
/
&ELECTRONS
   electron_maxstep = 200
   conv_thr         = 1e-07
   mixing_mode      = 'local-TF'
/
&IONS
   ion_dynamics     = 'bfgs'
/
&CELL
/
&FCP
/
&RISM
/
ATOMIC_SPECIES
Zr 91.224 Zr.pbe-spn-kjpaw_psl.1.0.0.UPF
B 10.81 B.pbe-n-kjpaw_psl.1.0.0.UPF

K_POINTS automatic
2 2 1  0 0 0

CELL_PARAMETERS angstrom
12.72196148000000 0.00000000000000 0.00000000000000
-6.36098074000000 11.01754182764707 0.00000000000000
0.00000000000000 0.00000000000000 28.86371000000000

ATOMIC_POSITIONS angstrom
Zr 0.0000000000 0.0000000000 10.0000000000  
B 1.5902452009 0.9181284765 11.7727420000  
B -0.0000000159 1.8362569805 11.7727420000  
Zr 0.0000000000 0.0000000000 13.5454840000  
B 1.5902452009 0.9181284765 15.3182260000  
B -0.0000000159 1.8362569805 15.3182260000  
Zr 0.0000000000 0.0000000000 17.0909680000  
B 1.5902452009 0.9181284765 18.8637100000  
B -0.0000000159 1.8362569805 18.8637100000  
Zr -1.5902451850 2.7543854569 10.0000000000  
B 0.0000000159 3.6725139334 11.7727420000  
B -1.5902452009 4.5906424374 11.7727420000  
Zr -1.5902451850 2.7543854569 13.5454840000  
B 0.0000000159 3.6725139334 15.3182260000  
B -1.5902452009 4.5906424374 15.3182260000  
Zr -1.5902451850 2.7543854569 17.0909680000  
B 0.0000000159 3.6725139334 18.8637100000  
B -1.5902452009 4.5906424374 18.8637100000  
Zr -3.1804903700 5.5087709138 10.0000000000  
B -1.5902451691 6.4268993903 11.7727420000  
B -3.1804903859 7.3450278943 11.7727420000  
Zr -3.1804903700 5.5087709138 13.5454840000  
B -1.5902451691 6.4268993903 15.3182260000  
B -3.1804903859 7.3450278943 15.3182260000  
Zr -3.1804903700 5.5087709138 17.0909680000  
B -1.5902451691 6.4268993903 18.8637100000  
B -3.1804903859 7.3450278943 18.8637100000  
Zr -4.7707355550 8.2631563707 10.0000000000  
B -3.1804903541 9.1812848472 11.7727420000  
B -4.7707355709 10.0994133512 11.7727420000  
Zr -4.7707355550 8.2631563707 13.5454840000  
B -3.1804903541 9.1812848472 15.3182260000  
B -4.7707355709 10.0994133512 15.3182260000  
Zr -4.7707355550 8.2631563707 17.0909680000  
B -3.1804903541 9.1812848472 18.8637100000  
B -4.7707355709 10.0994133512 18.8637100000  
Zr 3.1804903700 0.0000000000 10.0000000000  
B 4.7707355709 0.9181284765 11.7727420000  
B 3.1804903541 1.8362569805 11.7727420000  
Zr 3.1804903700 0.0000000000 13.5454840000  
B 4.7707355709 0.9181284765 15.3182260000  
B 3.1804903541 1.8362569805 15.3182260000  
Zr 3.1804903700 0.0000000000 17.0909680000  
B 4.7707355709 0.9181284765 18.8637100000  
B 3.1804903541 1.8362569805 18.8637100000  
Zr 1.5902451850 2.7543854569 10.0000000000  
B 3.1804903859 3.6725139334 11.7727420000  
B 1.5902451691 4.5906424374 11.7727420000  
Zr 1.5902451850 2.7543854569 13.5454840000  
B 3.1804903859 3.6725139334 15.3182260000  
B 1.5902451691 4.5906424374 15.3182260000  
Zr 1.5902451850 2.7543854569 17.0909680000  
B 3.1804903859 3.6725139334 18.8637100000  
B 1.5902451691 4.5906424374 18.8637100000  
Zr 0.0000000000 5.5087709138 10.0000000000  
B 1.5902452009 6.4268993903 11.7727420000  
B -0.0000000159 7.3450278943 11.7727420000  
Zr 0.0000000000 5.5087709138 13.5454840000  
B 1.5902452009 6.4268993903 15.3182260000  
B -0.0000000159 7.3450278943 15.3182260000  
Zr 0.0000000000 5.5087709138 17.0909680000  
B 1.5902452009 6.4268993903 18.8637100000  
B -0.0000000159 7.3450278943 18.8637100000  
Zr -1.5902451850 8.2631563707 10.0000000000  
B 0.0000000159 9.1812848472 11.7727420000  
B -1.5902452009 10.0994133512 11.7727420000  
Zr -1.5902451850 8.2631563707 13.5454840000  
B 0.0000000159 9.1812848472 15.3182260000  
B -1.5902452009 10.0994133512 15.3182260000  
Zr -1.5902451850 8.2631563707 17.0909680000  
B 0.0000000159 9.1812848472 18.8637100000  
B -1.5902452009 10.0994133512 18.8637100000  
Zr 6.3609807400 0.0000000000 10.0000000000  
B 7.9512259409 0.9181284765 11.7727420000  
B 6.3609807241 1.8362569805 11.7727420000  
Zr 6.3609807400 0.0000000000 13.5454840000  
B 7.9512259409 0.9181284765 15.3182260000  
B 6.3609807241 1.8362569805 15.3182260000  
Zr 6.3609807400 0.0000000000 17.0909680000  
B 7.9512259409 0.9181284765 18.8637100000  
B 6.3609807241 1.8362569805 18.8637100000  
Zr 4.7707355550 2.7543854569 10.0000000000  
B 6.3609807559 3.6725139334 11.7727420000  
B 4.7707355391 4.5906424374 11.7727420000  
Zr 4.7707355550 2.7543854569 13.5454840000  
B 6.3609807559 3.6725139334 15.3182260000  
B 4.7707355391 4.5906424374 15.3182260000  
Zr 4.7707355550 2.7543854569 17.0909680000  
B 6.3609807559 3.6725139334 18.8637100000  
B 4.7707355391 4.5906424374 18.8637100000  
Zr 3.1804903700 5.5087709138 10.0000000000  
B 4.7707355709 6.4268993903 11.7727420000  
B 3.1804903541 7.3450278943 11.7727420000  
Zr 3.1804903700 5.5087709138 13.5454840000  
B 4.7707355709 6.4268993903 15.3182260000  
B 3.1804903541 7.3450278943 15.3182260000  
Zr 3.1804903700 5.5087709138 17.0909680000  
B 4.7707355709 6.4268993903 18.8637100000  
B 3.1804903541 7.3450278943 18.8637100000  
Zr 1.5902451850 8.2631563707 10.0000000000  
B 3.1804903859 9.1812848472 11.7727420000  
B 1.5902451691 10.0994133512 11.7727420000  
Zr 1.5902451850 8.2631563707 13.5454840000  
B 3.1804903859 9.1812848472 15.3182260000  
B 1.5902451691 10.0994133512 15.3182260000  
Zr 1.5902451850 8.2631563707 17.0909680000  
B 3.1804903859 9.1812848472 18.8637100000  
B 1.5902451691 10.0994133512 18.8637100000  
Zr 9.5414711100 0.0000000000 10.0000000000  
B 11.1317163109 0.9181284765 11.7727420000  
B 9.5414710941 1.8362569805 11.7727420000  
Zr 9.5414711100 0.0000000000 13.5454840000  
B 11.1317163109 0.9181284765 15.3182260000  
B 9.5414710941 1.8362569805 15.3182260000  
Zr 9.5414711100 0.0000000000 17.0909680000  
B 11.1317163109 0.9181284765 18.8637100000  
B 9.5414710941 1.8362569805 18.8637100000  
Zr 7.9512259250 2.7543854569 10.0000000000  
B 9.5414711259 3.6725139334 11.7727420000  
B 7.9512259091 4.5906424374 11.7727420000  
Zr 7.9512259250 2.7543854569 13.5454840000  
B 9.5414711259 3.6725139334 15.3182260000  
B 7.9512259091 4.5906424374 15.3182260000  
Zr 7.9512259250 2.7543854569 17.0909680000  
B 9.5414711259 3.6725139334 18.8637100000  
B 7.9512259091 4.5906424374 18.8637100000  
Zr 6.3609807400 5.5087709138 10.0000000000  
B 7.9512259409 6.4268993903 11.7727420000  
B 6.3609807241 7.3450278943 11.7727420000  
Zr 6.3609807400 5.5087709138 13.5454840000  
B 7.9512259409 6.4268993903 15.3182260000  
B 6.3609807241 7.3450278943 15.3182260000  
Zr 6.3609807400 5.5087709138 17.0909680000  
B 7.9512259409 6.4268993903 18.8637100000  
B 6.3609807241 7.3450278943 18.8637100000  
Zr 4.7707355550 8.2631563707 10.0000000000  
B 6.3609807559 9.1812848472 11.7727420000  
B 4.7707355391 10.0994133512 11.7727420000  
Zr 4.7707355550 8.2631563707 13.5454840000  
B 6.3609807559 9.1812848472 15.3182260000  
B 4.7707355391 10.0994133512 15.3182260000  
Zr 4.7707355550 8.2631563707 17.0909680000  
B 6.3609807559 9.1812848472 18.8637100000  
B 4.7707355391 10.0994133512 18.8637100000  

