&CONTROL
  calculation = 'scf',
  restart_mode = 'from_scratch',
  prefix = 'zrb2-slab-001-relax',
  outdir = './tmp',
  pseudo_dir = '/home/cganley2/qe-data/pseudopotentials/SSSP_1.3.0_PBE_precision',
  nstep = 1,    ! number of MD steps
!  dt = 20,
  tprnfor = .true.,
  tstress = .true.,
/

&SYSTEM
  ibrav = 0,
  nat = 144,
  ntyp = 2,
  ecutwfc = 50,
  ecutrho = 400,
  occupations = 'smearing',
  smearing = 'gaussian',
  degauss = 0.01,
/

&ELECTRONS
  conv_thr = 1.0d-7,
  mixing_beta = 0.7,
/

&IONS
  ion_dynamics = 'bfgs',
/

ATOMIC_SPECIES
Zr 91.224 Zr.pbe-spn-kjpaw_psl.1.0.0.UPF
B  10.81 B.pbe-n-kjpaw_psl.1.0.0.UPF

CELL_PARAMETERS angstrom
12.72196148 0.00000000 0.00000000
-6.360980739999996 11.017541827647074 0.00000000
0.00000000 0.00000000 28.86371

ATOMIC_POSITIONS angstrom
Zr       0.00000000       0.00000000      10.00000000
B        1.59024520       0.91812848      11.77274200
B       -0.00000002       1.83625698      11.77274200
Zr       0.00000000       0.00000000      13.54548400
B        1.59024520       0.91812848      15.31822600
B       -0.00000002       1.83625698      15.31822600
Zr       0.00000000       0.00000000      17.09096800
B        1.59024520       0.91812848      18.86371000
B       -0.00000002       1.83625698      18.86371000
Zr      -1.59024518       2.75438546      10.00000000
B        0.00000002       3.67251393      11.77274200
B       -1.59024520       4.59064244      11.77274200
Zr      -1.59024518       2.75438546      13.54548400
B        0.00000002       3.67251393      15.31822600
B       -1.59024520       4.59064244      15.31822600
Zr      -1.59024518       2.75438546      17.09096800
B        0.00000002       3.67251393      18.86371000
B       -1.59024520       4.59064244      18.86371000
Zr      -3.18049037       5.50877091      10.00000000
B       -1.59024517       6.42689939      11.77274200
B       -3.18049039       7.34502789      11.77274200
Zr      -3.18049037       5.50877091      13.54548400
B       -1.59024517       6.42689939      15.31822600
B       -3.18049039       7.34502789      15.31822600
Zr      -3.18049037       5.50877091      17.09096800
B       -1.59024517       6.42689939      18.86371000
B       -3.18049039       7.34502789      18.86371000
Zr      -4.77073555       8.26315637      10.00000000
B       -3.18049035       9.18128485      11.77274200
B       -4.77073557      10.09941335      11.77274200
Zr      -4.77073555       8.26315637      13.54548400
B       -3.18049035       9.18128485      15.31822600
B       -4.77073557      10.09941335      15.31822600
Zr      -4.77073555       8.26315637      17.09096800
B       -3.18049035       9.18128485      18.86371000
B       -4.77073557      10.09941335      18.86371000
Zr       3.18049037       0.00000000      10.00000000
B        4.77073557       0.91812848      11.77274200
B        3.18049035       1.83625698      11.77274200
Zr       3.18049037       0.00000000      13.54548400
B        4.77073557       0.91812848      15.31822600
B        3.18049035       1.83625698      15.31822600
Zr       3.18049037       0.00000000      17.09096800
B        4.77073557       0.91812848      18.86371000
B        3.18049035       1.83625698      18.86371000
Zr       1.59024519       2.75438546      10.00000000
B        3.18049039       3.67251393      11.77274200
B        1.59024517       4.59064244      11.77274200
Zr       1.59024519       2.75438546      13.54548400
B        3.18049039       3.67251393      15.31822600
B        1.59024517       4.59064244      15.31822600
Zr       1.59024519       2.75438546      17.09096800
B        3.18049039       3.67251393      18.86371000
B        1.59024517       4.59064244      18.86371000
Zr       0.00000000       5.50877091      10.00000000
B        1.59024520       6.42689939      11.77274200
B       -0.00000002       7.34502789      11.77274200
Zr       0.00000000       5.50877091      13.54548400
B        1.59024520       6.42689939      15.31822600
B       -0.00000002       7.34502789      15.31822600
Zr       0.00000000       5.50877091      17.09096800
B        1.59024520       6.42689939      18.86371000
B       -0.00000002       7.34502789      18.86371000
Zr      -1.59024518       8.26315637      10.00000000
B        0.00000002       9.18128485      11.77274200
B       -1.59024520      10.09941335      11.77274200
Zr      -1.59024518       8.26315637      13.54548400
B        0.00000002       9.18128485      15.31822600
B       -1.59024520      10.09941335      15.31822600
Zr      -1.59024518       8.26315637      17.09096800
B        0.00000002       9.18128485      18.86371000
B       -1.59024520      10.09941335      18.86371000
Zr       6.36098074       0.00000000      10.00000000
B        7.95122594       0.91812848      11.77274200
B        6.36098072       1.83625698      11.77274200
Zr       6.36098074       0.00000000      13.54548400
B        7.95122594       0.91812848      15.31822600
B        6.36098072       1.83625698      15.31822600
Zr       6.36098074       0.00000000      17.09096800
B        7.95122594       0.91812848      18.86371000
B        6.36098072       1.83625698      18.86371000
Zr       4.77073555       2.75438546      10.00000000
B        6.36098076       3.67251393      11.77274200
B        4.77073554       4.59064244      11.77274200
Zr       4.77073555       2.75438546      13.54548400
B        6.36098076       3.67251393      15.31822600
B        4.77073554       4.59064244      15.31822600
Zr       4.77073555       2.75438546      17.09096800
B        6.36098076       3.67251393      18.86371000
B        4.77073554       4.59064244      18.86371000
Zr       3.18049037       5.50877091      10.00000000
B        4.77073557       6.42689939      11.77274200
B        3.18049035       7.34502789      11.77274200
Zr       3.18049037       5.50877091      13.54548400
B        4.77073557       6.42689939      15.31822600
B        3.18049035       7.34502789      15.31822600
Zr       3.18049037       5.50877091      17.09096800
B        4.77073557       6.42689939      18.86371000
B        3.18049035       7.34502789      18.86371000
Zr       1.59024519       8.26315637      10.00000000
B        3.18049039       9.18128485      11.77274200
B        1.59024517      10.09941335      11.77274200
Zr       1.59024519       8.26315637      13.54548400
B        3.18049039       9.18128485      15.31822600
B        1.59024517      10.09941335      15.31822600
Zr       1.59024519       8.26315637      17.09096800
B        3.18049039       9.18128485      18.86371000
B        1.59024517      10.09941335      18.86371000
Zr       9.54147111       0.00000000      10.00000000
B       11.13171631       0.91812848      11.77274200
B        9.54147109       1.83625698      11.77274200
Zr       9.54147111       0.00000000      13.54548400
B       11.13171631       0.91812848      15.31822600
B        9.54147109       1.83625698      15.31822600
Zr       9.54147111       0.00000000      17.09096800
B       11.13171631       0.91812848      18.86371000
B        9.54147109       1.83625698      18.86371000
Zr       7.95122593       2.75438546      10.00000000
B        9.54147113       3.67251393      11.77274200
B        7.95122591       4.59064244      11.77274200
Zr       7.95122593       2.75438546      13.54548400
B        9.54147113       3.67251393      15.31822600
B        7.95122591       4.59064244      15.31822600
Zr       7.95122593       2.75438546      17.09096800
B        9.54147113       3.67251393      18.86371000
B        7.95122591       4.59064244      18.86371000
Zr       6.36098074       5.50877091      10.00000000
B        7.95122594       6.42689939      11.77274200
B        6.36098072       7.34502789      11.77274200
Zr       6.36098074       5.50877091      13.54548400
B        7.95122594       6.42689939      15.31822600
B        6.36098072       7.34502789      15.31822600
Zr       6.36098074       5.50877091      17.09096800
B        7.95122594       6.42689939      18.86371000
B        6.36098072       7.34502789      18.86371000
Zr       4.77073556       8.26315637      10.00000000
B        6.36098076       9.18128485      11.77274200
B        4.77073554      10.09941335      11.77274200
Zr       4.77073556       8.26315637      13.54548400
B        6.36098076       9.18128485      15.31822600
B        4.77073554      10.09941335      15.31822600
Zr       4.77073556       8.26315637      17.09096800
B        6.36098076       9.18128485      18.86371000
B        4.77073554      10.09941335      18.86371000

K_POINTS automatic
2 2 1 0 0 0
