&CONTROL
   calculation      = 'scf'
   tstress          = .true.
   tprnfor          = .true.
   outdir           = './tmp'
   pseudo_dir       = '/home/cganley2/qe-data/pseudopotentials/SSSP_1.3.0_PBE_precision'
/
&SYSTEM
   ecutwfc          = 50
   ecutrho          = 400
   occupations      = 'smearing'
   degauss          = 0.01
   ntyp             = 3
   nat              = 144
   ibrav            = 0
/
&ELECTRONS
   electron_maxstep = 200
   conv_thr         = 1e-07
   mixing_mode      = 'local-TF'
/
&IONS
   ion_dynamics     = 'bfgs'
/
&CELL
/
&FCP
/
&RISM
/
ATOMIC_SPECIES
Zr 91.224 Zr.pbe-spn-kjpaw_psl.1.0.0.UPF
B 10.81 B.pbe-n-kjpaw_psl.1.0.0.UPF
O 15.999 O.pbe-n-kjpaw_psl.0.1.UPF

K_POINTS automatic
2 2 1  0 0 0

CELL_PARAMETERS angstrom
12.72196143710328 0.00000000000000 0.00000000000000
-6.36098071855164 11.01753665356737 0.00000000000000
0.00000000000000 0.00000000000000 28.86371332811429

ATOMIC_POSITIONS angstrom
Zr 0.0000000000 0.0000000000 10.0952626765  
B 1.5902463406 0.9181291385 11.7812083503  
B -0.0000000200 1.8362582970 11.7812083503  
Zr 0.0000000000 0.0000000000 13.5507160052  
B 1.5902466700 0.9181293287 15.3271648438  
B -0.0000000200 1.8362586774 15.3271648438  
Zr 0.0000000000 0.0000000000 17.1327367837  
B 1.5902447362 0.9181282122 18.7751674554  
B -0.0000000200 1.8362564444 18.7751674554  
Zr -1.5902437980 2.7543830664 10.0952644274  
B 0.0000000200 3.6725155347 11.7812089288  
B -1.5902454707 4.5906434266 11.7812099555  
Zr -1.5902460043 2.7543868878 13.5507180702  
B 0.0000000200 3.6725155294 15.3271652455  
B -1.5902458316 4.5906438272 15.3271658470  
Zr -1.5902451110 2.7543853405 17.1327377958  
B 0.0000000200 3.6725115911 18.7751673942  
B -1.5902460197 4.5906394554 18.7751681938  
Zr -3.1804903700 5.5087709100 10.0952655477  
B -1.5902449223 6.4268995330 11.7812094376  
B -3.1804896709 7.3450271622 11.7812099555  
Zr -3.1804903700 5.5087709100 13.5507194905  
O -1.5902446173 6.4268997091 15.3271657876  
B -3.1804895045 7.3450266494 15.3271658470  
Zr -3.1804903700 5.5087709100 17.1327398750  
B -1.5902456376 6.4268991200 18.7751669378  
B -3.1804933846 7.3450286724 18.7751681938  
Zr -4.7707369320 8.2631587636 10.0952644274  
B -3.1804889603 9.1812840477 11.7812089288  
B -4.7707344294 10.0994126915 11.7812083503  
Zr -4.7707347257 8.2631549422 13.5507180702  
B -3.1804889649 9.1812840503 15.3271652455  
B -4.7707341000 10.0994125013 15.3271648438  
Zr -4.7707356190 8.2631564895 17.1327377958  
B -3.1804923755 9.1812860194 18.7751673942  
B -4.7707360338 10.0994136178 18.7751674554  
Zr 3.1804876061 0.0000000000 10.0952644274  
B 4.7707365598 0.9181287388 11.7812099555  
B 3.1804917397 1.8362577823 11.7812089288  
Zr 3.1804920186 0.0000000000 13.5507180702  
B 4.7707370872 0.9181286266 15.3271658470  
B 3.1804917351 1.8362577797 15.3271652455  
Zr 3.1804902321 0.0000000000 17.1327377958  
B 4.7707333951 0.9181262778 18.7751681938  
B 3.1804883245 1.8362558106 18.7751673942  
Zr 1.5902438080 2.7543830664 10.0952644274  
B 3.1804911091 3.6725146578 11.7812099555  
B 1.5902454407 4.5906434266 11.7812099555  
Zr 1.5902460143 2.7543868878 13.5507180702  
B 3.1804912755 3.6725151706 15.3271658470  
B 1.5902458016 4.5906438272 15.3271658470  
Zr 1.5902451210 2.7543853405 17.1327377958  
B 3.1804873954 3.6725131476 18.7751681938  
B 1.5902459897 4.5906394554 18.7751681938  
Zr 0.0000000000 5.5087713346 10.0952657468  
B 1.5902449523 6.4268995330 11.7812094376  
B -0.0000000200 7.3450278900 11.7812103455  
Zr 0.0000000000 5.5087712064 13.5507194852  
B 1.5902446473 6.4268997091 15.3271657876  
B -0.0000000200 7.3450278900 15.3271664479  
Zr 0.0000000000 5.5087672630 17.1327399338  
B 1.5902456676 6.4268991200 18.7751669378  
B -0.0000000200 7.3450278900 18.7751686049  
Zr -1.5902448122 8.2631561577 10.0952657468  
B 0.0000000200 9.1812845640 11.7812094376  
B -1.5902442102 10.0994130912 11.7812099555  
Zr -1.5902449233 8.2631562218 13.5507194852  
B 0.0000000200 9.1812842118 15.3271657876  
B -1.5902436828 10.0994132034 15.3271658470  
Zr -1.5902483384 8.2631581935 17.1327399338  
B 0.0000000200 9.1812853899 18.7751669378  
B -1.5902473749 10.0994155522 18.7751681938  
Zr 6.3609807400 0.0000000000 10.0952655477  
B 7.9512249502 0.9181287388 11.7812099555  
B 6.3609807200 1.8362572660 11.7812094376  
Zr 6.3609807400 0.0000000000 13.5507194905  
B 7.9512244228 0.9181286266 15.3271658470  
B 6.3609807200 1.8362576182 15.3271657876  
Zr 6.3609807400 0.0000000000 17.1327398750  
B 7.9512281149 0.9181262778 18.7751681938  
B 6.3609807200 1.8362564401 18.7751669378  
Zr 4.7707359178 2.7543856723 10.0952657468  
B 6.3609807600 3.6725139300 11.7812103455  
B 4.7707357877 4.5906422970 11.7812094376  
Zr 4.7707358067 2.7543856082 13.5507194852  
B 6.3609807600 3.6725139300 15.3271664479  
B 4.7707360927 4.5906421209 15.3271657876  
Zr 4.7707323916 2.7543836365 17.1327399338  
B 6.3609807600 3.6725139300 18.7751686049  
B 4.7707350724 4.5906427100 18.7751669378  
Zr 3.1804903700 5.5087709100 10.0952655477  
B 4.7707352993 6.4268984034 11.7812099555  
B 3.1804896309 7.3450271622 11.7812099555  
Zr 3.1804903700 5.5087709100 13.5507194905  
B 4.7707349384 6.4268980028 15.3271658470  
B 3.1804894645 7.3450266494 15.3271658470  
Zr 3.1804903700 5.5087709100 17.1327398750  
B 4.7707347503 6.4269023746 18.7751681938  
B 3.1804933446 7.3450286724 18.7751681938  
Zr 1.5902448222 8.2631561577 10.0952657468  
B 3.1804890003 9.1812840477 11.7812089288  
B 1.5902441802 10.0994130912 11.7812099555  
Zr 1.5902449333 8.2631562218 13.5507194852  
B 3.1804890049 9.1812840503 15.3271652455  
B 1.5902436528 10.0994132034 15.3271658470  
Zr 1.5902483484 8.2631581935 17.1327399338  
B 3.1804924155 9.1812860194 18.7751673942  
B 1.5902473449 10.0994155522 18.7751681938  
Zr 9.5414738739 0.0000000000 10.0952644274  
B 11.1317151694 0.9181291385 11.7812083503  
B 9.5414697003 1.8362577823 11.7812089288  
Zr 9.5414694614 0.0000000000 13.5507180702  
B 11.1317148400 0.9181293287 15.3271648438  
B 9.5414697049 1.8362577797 15.3271652455  
Zr 9.5414712479 0.0000000000 17.1327377958  
B 11.1317167738 0.9181282122 18.7751674554  
B 9.5414731155 1.8362558106 18.7751673942  
Zr 7.9512255622 2.7543856723 10.0952657468  
B 9.5414704109 3.6725146578 11.7812099555  
B 7.9512256623 4.5906422970 11.7812094376  
Zr 7.9512256733 2.7543856082 13.5507194852  
B 9.5414702445 3.6725151706 15.3271658470  
B 7.9512253573 4.5906421209 15.3271657876  
Zr 7.9512290884 2.7543836365 17.1327399338  
B 9.5414741246 3.6725131476 18.7751681938  
B 7.9512263776 4.5906427100 18.7751669378  
Zr 6.3609807400 5.5087704854 10.0952657468  
B 7.9512262107 6.4268984034 11.7812099555  
B 6.3609807200 7.3450262853 11.7812089288  
Zr 6.3609807400 5.5087706136 13.5507194852  
B 7.9512265716 6.4268980028 15.3271658470  
B 6.3609807200 7.3450262906 15.3271652455  
Zr 6.3609807400 5.5087745570 17.1327399338  
B 7.9512267597 6.4269023746 18.7751681938  
B 6.3609807200 7.3450302289 18.7751673942  
Zr 4.7707369420 8.2631587636 10.0952644274  
B 6.3609807600 9.1812835330 11.7812083503  
B 4.7707343994 10.0994126915 11.7812083503  
Zr 4.7707347357 8.2631549422 13.5507180702  
B 6.3609807600 9.1812831526 15.3271648438  
B 4.7707340700 10.0994125013 15.3271648438  
Zr 4.7707356290 8.2631564895 17.1327377958  
B 6.3609807600 9.1812853856 18.7751674554  
B 4.7707360038 10.0994136178 18.7751674554  

